c description: tiling of 
c generator: CNFgen (0.9.0)
c copyright: (C) 2012-2020 Massimo Lauria <massimo.lauria@uniroma1.it>
c url: https://massimolauria.net/cnfgen
c
p cnf 20 99
-1 -3 0
-1 -6 0
-1 -10 0
-1 -13 0
-1 -20 0
-3 -6 0
-3 -10 0
-3 -13 0
-3 -20 0
-6 -10 0
-6 -13 0
-6 -20 0
-10 -13 0
-10 -20 0
-13 -20 0
1 3 6 10 13 20 0
-1 -6 0
-1 -10 0
-1 -13 0
-6 -10 0
-6 -13 0
-10 -13 0
1 6 10 13 0
-1 -9 0
-1 -14 0
-9 -14 0
1 9 14 0
-1 -10 0
-1 -12 0
-1 -13 0
-1 -14 0
-1 -17 0
-10 -12 0
-10 -13 0
-10 -14 0
-10 -17 0
-12 -13 0
-12 -14 0
-12 -17 0
-13 -14 0
-13 -17 0
-14 -17 0
1 10 12 13 14 17 0
-1 -12 0
-1 -19 0
-12 -19 0
1 12 19 0
-1 -17 0
1 17 0
-2 -3 0
2 3 0
-2 -3 0
-2 -10 0
-2 -15 0
-2 -18 0
-3 -10 0
-3 -15 0
-3 -18 0
-10 -15 0
-10 -18 0
-15 -18 0
2 3 10 15 18 0
-3 -6 0
-3 -15 0
-3 -16 0
-6 -15 0
-6 -16 0
-15 -16 0
3 6 15 16 0
-3 -18 0
3 18 0
4 0
5 0
-6 -10 0
-6 -13 0
-6 -15 0
-10 -13 0
-10 -15 0
-13 -15 0
6 10 13 15 0
-7 -15 0
-7 -16 0
-7 -19 0
-15 -16 0
-15 -19 0
-16 -19 0
7 15 16 19 0
-7 -16 0
7 16 0
-8 -11 0
8 11 0
-9 -14 0
9 14 0
-10 -20 0
10 20 0
-12 -16 0
-12 -19 0
-16 -19 0
12 16 19 0